12843
1 0 0 0 0 1 0 0 0 0 0 1 0 0 1 1 0 0 0 0 1 0 0 0 0 0 0 0 0 0 
20 11 20 14 20 5 14 5 14 0 5 20 20 20 0 14 14 0 5 11 14 0 5 0 5 20 0 5 5 15 5 11 20 11 20 20 5 15 0 14 0 14 15 14 5 14 0 20 11 14 5 14 14 5 20 20 14 11 11 14 0 5 20 11 11 11 5 0 5 5 20 20 11 0 15 20 15 20 14 5 20 0 20 0 0 0 0 0 20 5 14 5 0 11 0 5 14 0 11 20 20 0 14 11 14 5 0 11 14 14 14 14 0 11 11 11 5 15 5 5 5 14 11 20 20 0 5 15 0 11 0 11 5 11 14 14 0 5 20 0 0 20 20 14 20 11 11 5 0 5 
